TITLE:
LPA missing data
DATA:
FILE = "/Users/atanas/git/PR_quant_LPA/mplus/1_optseed_m/full_1_optseed_m.dat";
 
VARIABLE:
NAMES = ID pb tb bhs ac; 
 MISSING=.;
 USEVARIABLES = pb tb bhs ac;
IDVARIABLE = ID;
ANALYSIS:
ESTIMATOR = MLR;
       ALGORITHM = INTEGRATION;
       TYPE = BASIC;
       ! STARTS = 160 32;
       ! OPTSEED = 391179;
       ! Dual-Core with hyperthreading = 4 processors
       PROCESSORS = 4;
       ! K-1STARTS = 20 4; ! used with TECH11 output
       ! LRTSTARTS = 20 4 40 8; ! used with TECH14 output
OUTPUT:
TECH1 TECH8;
       ! TECH11 TECH14;
       STANDARDIZED; ! this saves standardised scores for plotting
SAVEDATA:
FILE = /Users/atanas/git/PR_quant_LPA/mplus/1_optseed_m/c0_optseed_m_v1.dat;
SAVE = CPROB;
         FORMAT = FREE;
PLOT:
TYPE = PLOT3;
